p cnf 20 20
15 -5 -8 0
9 -14 11 0
1 -4 17 0
14 3 15 0
-6 -2 -14 0
20 -3 8 0
-15 -20 -8 0
18 15 -17 0
9 20 -7 0
4 -19 -5 0
-13 -5 18 0
15 -9 -12 0
9 7 -4 0
-2 3 -11 0
18 -14 13 0
20 11 -5 0
4 -17 -16 0
-14 18 20 0
-5 6 -8 0
16 -20 14 0
